(set-info :Origin "This instance was generated by: BanditFuzz-- an RL fuzzer for SMT solvers" )
(set-info :Author "Joe Scott, Fed Mora, Vijay Ganesh" )
(set-info :Contact "Joe Scott, joseph.scott@uwaterloo.ca")
(set-logic QF_BV)
(declare-const bool_0 Bool)
(declare-const bool_1 Bool)
(declare-const bool_2 Bool)
(declare-const bool_3 Bool)
(declare-const bool_4 Bool)
(declare-const bv_0 (_ BitVec 32))
(declare-const bv_1 (_ BitVec 32))
(declare-const bv_2 (_ BitVec 32))
(declare-const bv_3 (_ BitVec 32))
(declare-const bv_4 (_ BitVec 32))
(assert (bvsgt (bvsrem (bvsdiv #x18630007  bv_4) (bvshl #xa627abf9  #x6ff49428 )) (bvsdiv (bvxnor bv_4 bv_1) (bvurem #x742be53e  bv_2))))
(assert (bvslt (bvor (bvnor #x7f62db55  #xc33345de ) (bvnand bv_1 bv_2)) (bvashr (bvnor #x387fc747  bv_3) (bvnand bv_1 bv_1))))
(assert (not (bvsle (bvudiv #x24600fc2  #x45561749 ) (bvsrem #x4d0f18e1  #x8763e50f ))))
(assert (not (not (bvult bv_2 #x08faa63d ))))
(assert (not (bvugt (bvurem #x8c4f4133  bv_4) (bvudiv bv_2 #xc7de1396 ))))
(check-sat)
(exit)
